Solver command line: ['C:\\Program Files\\gurobi1102\\win64\\bin\\gurobi.bat']

Set parameter Username
Academic license - for non-commercial use only - expires 2025-07-11
Read LP format model from file C:\Users\PAULWI~1\AppData\Local\Temp\tmp5t42uayr.pyomo.lp
Reading time = 0.12 seconds
objective: 16129 rows, 14951 columns, 35937 nonzeros
Set parameter TimeLimit to value 200
Set parameter MIPGap to value 0.01
Gurobi Optimizer version 11.0.2 build v11.0.2rc0 (win64 - Windows 10.0 (19045.2))

CPU model: Intel(R) Xeon(R) CPU E5-1607 v2 @ 3.00GHz, instruction set [SSE2|AVX]
Thread count: 4 physical cores, 4 logical processors, using up to 4 threads

Optimize a model with 16129 rows, 14951 columns and 35937 nonzeros
Model fingerprint: 0xa58964f0
Model has 167 quadratic constraints
Variable types: 12936 continuous, 2015 integer (1680 binary)
Coefficient statistics:
  Matrix range     [6e-03, 1e+03]
  QMatrix range    [1e+00, 1e+00]
  Objective range  [4e+01, 3e+02]
  Bounds range     [1e+00, 3e+00]
  RHS range        [4e-04, 1e+04]
Presolve removed 14631 rows and 13453 columns
Presolve time: 0.13s
Presolved: 1498 rows, 1498 columns, 4667 nonzeros
Variable types: 997 continuous, 501 integer (501 binary)

Root relaxation: objective 5.142502e+05, 452 iterations, 0.03 seconds (0.02 work units)

    Nodes    |    Current Node    |     Objective Bounds      |     Work
 Expl Unexpl |  Obj  Depth IntInf | Incumbent    BestBd   Gap | It/Node Time

     0     0 514250.240    0   13          - 514250.240      -     -    0s
H    0     0                    522698.04959 514250.240  1.62%     -    0s
H    0     0                    518880.36253 514250.240  0.89%     -    0s

Cutting planes:
  Gomory: 13
  Cover: 1
  Implied bound: 10
  MIR: 8
  Flow cover: 13
  RLT: 10
  Relax-and-lift: 6

Explored 1 nodes (554 simplex iterations) in 0.24 seconds (0.10 work units)
Thread count was 4 (of 4 available processors)

Solution count 2: 518880 522698 

Optimal solution found (tolerance 1.00e-02)
Best objective 5.188803625307e+05, best bound 5.142502400109e+05, gap 0.8923%

